--- Job or_report_1.6_mB_6f.gms Start 06/07/20 18:34:24 28.2.0 r750fa45 WEX-WEI x86 64bit/MS Windows
--- GAMS Parameters defined
    Input D:\Onedrive\Documents\GAMSStudio\or_report_1.6_model_B_multinode\6nodes\or_report_1.6_mB_6f.gms
    PageSize 0
    ScrDir D:\Onedrive\Documents\GAMSStudio\or_report_1.6_model_B_multinode\6nodes\225a\
    SysDir D:\GAMS\win64\28.2\
    LogOption 3
    ErrMsg 1
    ErrorLog 99
    IDE 1
    LstTitleLeftAligned 1
GAMS 28.2.0   Copyright (C) 1987-2019 GAMS Development. All rights reserved
Licensee: GAMS Development Corporation, USA              G871201/0000CA-ANY
          Free Demo, +1 202-342-0180, support@gams.com, www.gams.com DC0000
--- Starting compilation
--- or_report_1.6_mB_6f.gms(10) 3 Mb
--- . or_report.1.6_maxflow_mB_6f.csv(7) 3 Mb
--- or_report_1.6_mB_6f.gms(16) 3 Mb
--- . or_report.1.6_cost_mB_6f.csv(7) 3 Mb
--- or_report_1.6_mB_6f.gms(119) 3 Mb
--- call gdxdump or_report.1.6_mB_6f.gdx symb=cost CSVSetText format=csv header = "cost(iter)">> or_report.1.6_mB_6f_out_cost.csv
--- or_report_1.6_mB_6f.gms(120) 3 Mb
--- call gdxdump or_report.1.6_mB_6f.gdx symb=isfeasible CSVSetText format=csv header = "isfeasible(iter)">> or_report.1.6_mB_6f_out_isfeasible.csv
--- or_report_1.6_mB_6f.gms(121) 3 Mb
--- call gdxdump or_report.1.6_mB_6f.gdx symb=remain CSVSetText format=csv header ="remain(iter)">> or_report.1.6_mB_6f_out_remain.csv
--- or_report_1.6_mB_6f.gms(122) 3 Mb
--- call gdxdump or_report.1.6_mB_6f.gdx symb=remainrate CSVSetText format=csv header = "remainrate(iter)">> or_report.1.6_mB_6f_out_remainrate.csv
--- or_report_1.6_mB_6f.gms(123) 3 Mb
--- Starting execution: elapsed 0:00:00.139
--- or_report_1.6_mB_6f.gms(64) 4 Mb
--- Generating LP model demo_1
--- or_report_1.6_mB_6f.gms(94) 4 Mb
---   42 rows  37 columns  97 non-zeroes
--- Executing CPLEX: elapsed 0:00:00.144

IBM ILOG CPLEX   28.2.0 r750fa45 Released Aug 19, 2019 WEI x86 64bit/MS Window
Cplex 12.9.0.0

Reading data...
Starting Cplex...
Space for names approximately 0.00 Mb
Use option 'names no' to turn use of names off
CPXPARAM_Advance                                 0
CPXPARAM_Threads                                 1
CPXPARAM_Parallel                                1
CPXPARAM_Simplex_Limits_Iterations               2000000000
CPXPARAM_TimeLimit                               1000
CPXPARAM_Tune_TimeLimit                          200
Tried aggregator 1 time.
LP Presolve eliminated 37 rows and 7 columns.
Reduced LP has 5 rows, 30 columns, and 50 nonzeros.
Presolve time = 0.00 sec. (0.03 ticks)
Initializing dual steep norms . . .

Iteration log . . .
Iteration:     1   Dual objective     =           693.620756
LP status(1): optimal
Cplex Time: 0.00sec (det. 0.05 ticks)

Optimal solution found.
Objective :         375.515590

--- Restarting execution
--- or_report_1.6_mB_6f.gms(94) 2 Mb
--- Reading solution for model demo_1
--- Executing after solve: elapsed 0:00:00.232
--- or_report_1.6_mB_6f.gms(103) 3 Mb
*** Status: Normal completion
--- Job or_report_1.6_mB_6f.gms Stop 06/07/20 18:34:24 elapsed 0:00:00.232
